3367.33
0 6 8 9 2 1 10 5 3 4 7 13 16 0
0 37 34 31 44 55 14 22 11 15 12 64 0
0 41 40 33 47 23 26 20 24 52 25 0
0 36 39 30 58 29 28 32 35 0
0 51 53 62 49 59 48 38 56 43 45 42 46 67 60 50 0
0 68 54 63 57 61 72 0
0 75 73 70 71 69 77 79 84 86 85 83 66 65 0
0 76 80 74 18 17 88 87 0
0 98 94 91 96 89 93 97 90 78 82 27 21 0
0 81 100 92 0
0 95 19 0
